000 000 000 000 000 000 000 -99 -99 -99 -99 -99 000 000 000 000 -99 -99 -99 000 -99 -99 -99 -99 000 000 -99 000 -99 -99 -99
000 000 000 000 000 000 000 -99 -99 -99 -99 -99 -99 000 000 000 -99 -99 000 000 000 -99 -99 -99 000 000 000 000 -99 -99 -99
005 000 000 000 000 000 000 000 -99 -99 -99 -99 -99 -99 000 000 -99 -99 -99 -99 000 -99 -99 -99 000 000 000 000 -99 -99 -99
005 000 000 000 000 000 000 000 000 -99 -99 -99 000 -99 000 000 -99 -99 -99 -99 000 -99 -99 000 000 -99 000 000 -99 -99 -99
000 000 000 000 000 -99 000 000 000 000 -99 -99 000 000 000 000 -99 -99 -99 -99 000 000 000 000 000 000 -99 -99 -99 -99 -99
000 000 000 000 000 -99 000 000 000 000 -99 -99 000 000 000 -99 -99 -99 -99 -99 000 000 000 000 000 -99 -99 -99 -99 -99 -99
000 000 000 000 000 -99 000 000 000 000 000 -99 -99 000 000 -99 -99 -99 -99 -99 000 000 000 000 000 -99 -99 -99 -99 -99 -99
000 000 000 000 -99 -99 -99 000 000 000 000 -99 -99 -99 -99 -99 000 000 000 -99 -99 000 -99 000 000 -99 -99 -99 -99 -99 -99
000 000 000 000 000 000 -99 000 000 000 000 000 -99 -99 -99 -99 -99 000 000 -99 -99 -99 -99 000 000 -99 000 000 -99 -99 -99
000 000 000 000 000 000 000 000 000 000 000 000 000 -99 000 000 -99 000 000 -99 -99 -99 -99 -99 000 000 -99 000 -99 -99 -99
000 000 000 000 000 000 000 000 000 000 000 000 000 000 -99 000 000 000 000 -99 -99 -99 -99 -99 000 000 -99 -99 -99 000 -99
000 000 000 000 000 000 000 000 000 000 000 000 -99 -99 -99 000 000 -99 -99 -99 -99 -99 -99 000 000 -99 -99 -99 -99 000 -99
000 000 000 000 000 000 000 000 000 000 000 000 -99 -99 -99 000 000 000 000 -99 -99 -99 -99 000 000 -99 -99 -99 000 000 -99
000 000 000 000 000 000 000 000 -99 000 000 000 -99 -99 -99 -99 000 000 000 -99 -99 000 -99 000 000 000 000 -99 000 000 -99
000 000 000 000 000 000 000 000 -99 000 -99 -99 -99 000 000 000 000 000 000 -99 -99 000 -99 000 000 000 000 -99 000 000 -99
000 -99 -99 -99 000 000 000 000 000 -99 -99 -99 -99 -99 000 000 000 000 000 -99 -99 000 000 000 000 000 000 000 002 000 -99
-99 -99 -99 -99 000 000 000 000 000 -99 -99 -99 -99 000 000 000 000 000 000 000 -99 -99 000 000 000 000 000 000 000 009 -99
000 000 -99 -99 -99 -99 000 000 000 -99 -99 -99 -99 000 000 000 000 000 000 -99 -99 000 000 -99 -99 -99 000 000 001 015 -99
000 000 000 000 -99 -99 000 000 000 -99 -99 -99 -99 000 000 000 000 000 000 -99 000 000 000 -99 000 -99 000 000 019 004 -99
000 000 000 000 -99 -99 -99 000 000 000 -99 -99 -99 000 000 000 000 000 000 000 000 000 000 -99 -99 -99 -99 -99 -99 000 -99
000 000 000 000 000 000 -99 -99 000 000 000 -99 -99 -99 000 000 000 000 000 000 000 000 000 -99 -99 -99 -99 -99 -99 -99 -99
000 000 000 000 000 000 -99 -99 000 000 000 -99 -99 -99 000 000 000 000 000 000 000 000 000 -99 -99 -99 -99 -99 -99 -99 -99
000 000 000 000 000 000 -99 000 000 000 000 -99 -99 000 000 000 000 000 000 000 000 000 000 -99 -99 -99 -99 -99 -99 -99 -99
000 000 000 000 000 -99 -99 000 000 000 -99 -99 000 000 000 000 000 000 000 000 000 000 -99 -99 -99 -99 -99 -99 -99 -99 -99
000 000 000 000 000 000 000 000 000 -99 -99 -99 000 000 000 000 000 000 000 000 000 000 -99 -99 -99 -99 -99 -99 -99 -99 -99
000 000 000 000 000 000 000 000 000 000 -99 -99 000 000 000 000 000 000 000 000 000 -99 -99 -99 -99 -99 -99 -99 -99 -99 -99
000 000 000 -99 000 000 000 000 000 000 -99 -99 -99 000 000 000 000 000 000 000 000 -99 -99 -99 -99 -99 -99 -99 -99 -99 -99
000 000 000 -99 000 000 000 000 000 000 -99 -99 000 000 000 000 000 000 000 000 000 000 -99 -99 -99 -99 -99 -99 -99 -99 -99
000 000 000 000 000 000 000 000 000 000 -99 -99 -99 000 000 000 000 -99 000 000 000 000 -99 -99 -99 -99 -99 -99 -99 -99 -99
000 000 000 000 000 000 000 000 000 000 -99 -99 -99 000 000 000 000 000 000 000 -99 000 -99 -99 -99 -99 -99 -99 -99 -99 -99
000 000 000 000 000 000 000 000 000 000 -99 -99 000 000 000 000 000 000 000 000 000 000 -99 -99 -99 -99 -99 -99 -99 -99 -99
000 000 000 000 000 000 000 -99 000 000 000 -99 -99 000 000 -99 -99 000 000 -99 -99 000 -99 000 000 -99 -99 -99 -99 -99 -99
000 000 000 000 000 000 000 000 000 000 -99 -99 -99 000 000 -99 -99 000 000 -99 -99 000 -99 000 000 -99 -99 000 000 -99 000
000 000 000 000 000 000 000 000 000 -99 -99 -99 -99 000 000 000 -99 000 -99 -99 -99 -99 -99 000 000 000 -99 000 000 000 000
000 000 000 000 000 000 000 000 000 000 -99 -99 -99 000 000 000 000 -99 -99 000 000 -99 -99 000 000 000 000 000 000 000 000
000 000 000 000 000 000 000 000 000 000 000 -99 000 000 000 000 000 -99 -99 000 000 000 -99 000 000 000 000 000 000 000 000
000 000 000 000 000 -99 000 000 000 000 000 -99 000 000 000 000 000 -99 -99 000 000 000 000 000 000 000 000 000 -99 -99 000
000 -99 000 -99 000 -99 -99 000 000 -99 -99 000 000 000 000 000 000 000 -99 000 000 -99 -99 000 000 000 000 000 -99 -99 -99
000 -99 000 000 -99 -99 000 000 -99 -99 -99 000 000 000 000 000 000 -99 -99 000 -99 -99 000 000 000 000 000 000 -99 000 000
000 000 000 -99 -99 -99 000 000 -99 -99 -99 -99 000 000 000 000 000 000 -99 -99 -99 -99 -99 000 000 000 000 000 -99 000 000
000 000 -99 -99 -99 -99 000 000 -99 -99 000 000 000 000 000 000 000 000 -99 -99 -99 000 000 000 000 -99 000 000 -99 000 000
000 000 -99 -99 -99 -99 000 -99 -99 -99 000 000 000 000 000 000 000 000 000 -99 -99 -99 000 -99 -99 -99 -99 -99 000 000 000
000 000 -99 -99 -99 000 000 -99 -99 000 000 000 000 000 000 000 000 000 000 000 -99 000 -99 -99 -99 000 -99 -99 000 000 000
000 -99 -99 -99 -99 000 000 -99 -99 000 000 000 000 000 000 000 -99 000 000 000 -99 000 -99 -99 -99 000 -99 000 000 -99 000
000 000 -99 -99 -99 -99 -99 -99 -99 -99 000 000 000 000 000 000 000 000 000 000 -99 -99 -99 000 000 -99 000 000 001 -99 -99
000 -99 -99 -99 -99 -99 -99 -99 -99 -99 -99 000 000 000 000 -99 000 000 000 000 -99 -99 -99 000 000 000 000 002 002 001 000
000 -99 -99 -99 -99 -99 -99 -99 -99 -99 -99 000 000 000 000 -99 -99 000 000 000 -99 -99 000 000 000 000 000 004 004 001 000
-99 -99 -99 -99 -99 -99 -99 -99 -99 -99 -99 000 000 000 -99 -99 -99 000 000 -99 -99 000 000 000 000 000 001 005 001 001 000
-99 -99 -99 -99 -99 -99 -99 -99 -99 -99 -99 -99 000 000 -99 -99 -99 000 -99 -99 000 000 000 000 000 000 002 003 001 000 -99
-99 -99 -99 -99 -99 -99 -99 -99 -99 -99 000 000 -99 000 -99 -99 -99 000 -99 -99 000 000 000 000 000 000 002 000 000 -99 -99
-99 -99 -99 -99 -99 -99 -99 -99 -99 000 000 000 000 000 000 -99 -99 -99 -99 -99 000 000 -99 000 000 000 001 000 000 -99 -99
-99 -99 -99 -99 -99 -99 -99 -99 -99 -99 -99 -99 000 000 -99 -99 -99 -99 -99 000 000 -99 000 000 000 000 000 -99 -99 -99 -99
-99 -99 -99 -99 -99 -99 -99 -99 -99 -99 -99 -99 -99 -99 -99 -99 -99 000 000 -99 000 -99 000 000 000 000 -99 -99 -99 -99 000
-99 -99 -99 -99 -99 -99 -99 -99 -99 -99 -99 -99 -99 -99 -99 -99 000 000 000 -99 -99 -99 000 000 000 000 -99 -99 -99 -99 000
-99 -99 -99 -99 -99 -99 -99 -99 -99 -99 -99 -99 -99 -99 -99 000 000 000 -99 -99 -99 000 000 000 000 000 -99 -99 -99 000 000
